centroides = 0;
nNurses = 221;
hours = 83;
demand = [20 41 16 33 20 9 3 35 52 7 41 24 53 45 0 18 35 40 17 29 6 12 49 24 19 20 35 0 31 47 38 45 14 16 26 13 14 15 47 47 36 1 5 43 24 47 1 2 19 38 46 47 11 51 16 2 52 22 42 26 13 1 19 8 36 26 50 29 50 33 3 41 49 52 42 37 27 13 31 26 18 27 42];
minHours = 22;
maxHours = 35;
maxConsec = 22;
maxPresence = 67;